(declare-fun var76923 () (_ BitVec 64))
(declare-fun ARGNAME_i1_NAMEEND_DIM () (_ BitVec 64))
(declare-fun ARGNAME_expand1_NAMEEND_LEN () (_ BitVec 64))
(declare-fun var76924 () (_ BitVec 64))
(declare-fun ARGNAME_unroll_dim_NAMEEND () (_ BitVec 64))
(declare-fun var76925 () (_ BitVec 64))
(declare-fun temp934_1 () (_ BitVec 64))
(declare-fun var76926 () (_ BitVec 64))
(declare-fun var76927 () (_ BitVec 64))
(declare-fun temp934_2 () (_ BitVec 64))
(declare-fun temp934_3 () (_ BitVec 64))
(declare-fun var76928 () (_ BitVec 64))
(declare-fun k!0 () (_ BitVec 64))
(declare-fun k!1 () Bool)
(declare-fun var269666 () (_ BitVec 64))
(declare-fun temp934_4 () (_ BitVec 64))
(declare-fun var269695 () (_ BitVec 64))
(declare-fun temp934_5 () (_ BitVec 64))
(declare-fun temp934_7 () (_ BitVec 64))
(declare-fun temp934_6 () (_ BitVec 64))
(declare-fun temp934_9 () (_ BitVec 64))
(declare-fun temp934_8 () (_ BitVec 64))
(declare-fun temp934_10 () (_ BitVec 64))
(declare-fun var862370 () (_ BitVec 64))
(declare-fun var927917 () (_ BitVec 64))
(declare-fun temp934_11 () (_ BitVec 64))
(declare-fun var1713223 () (_ BitVec 64))
(declare-fun var2104674 () (_ BitVec 64))
(declare-fun temp934_12 () (_ BitVec 64))
(declare-fun var2104703 () (_ BitVec 64))
(declare-fun temp934_13 () (_ BitVec 64))
(declare-fun temp934_15 () (_ BitVec 64))
(declare-fun temp934_14 () (_ BitVec 64))
(declare-fun temp934_17 () (_ BitVec 64))
(declare-fun temp934_16 () (_ BitVec 64))
(declare-fun temp934_18 () (_ BitVec 64))
(declare-fun var2697378 () (_ BitVec 64))
(declare-fun var2762925 () (_ BitVec 64))
(declare-fun temp934_19 () (_ BitVec 64))
(declare-fun var3548231 () (_ BitVec 64))
(declare-fun var3939682 () (_ BitVec 64))
(declare-fun temp934_20 () (_ BitVec 64))
(declare-fun var3939711 () (_ BitVec 64))
(declare-fun temp934_21 () (_ BitVec 64))
(declare-fun temp934_23 () (_ BitVec 64))
(declare-fun temp934_22 () (_ BitVec 64))
(declare-fun temp934_25 () (_ BitVec 64))
(declare-fun temp934_24 () (_ BitVec 64))
(declare-fun temp934_26 () (_ BitVec 64))
(declare-fun var4532386 () (_ BitVec 64))
(declare-fun var4597933 () (_ BitVec 64))
(declare-fun temp934_27 () (_ BitVec 64))
(declare-fun var5383239 () (_ BitVec 64))
(declare-fun var5774690 () (_ BitVec 64))
(declare-fun temp934_28 () (_ BitVec 64))
(declare-fun var5774719 () (_ BitVec 64))
(declare-fun temp934_29 () (_ BitVec 64))
(declare-fun temp934_31 () (_ BitVec 64))
(declare-fun temp934_30 () (_ BitVec 64))
(declare-fun temp934_33 () (_ BitVec 64))
(declare-fun temp934_32 () (_ BitVec 64))
(declare-fun temp934_34 () (_ BitVec 64))
(declare-fun var6367394 () (_ BitVec 64))
(declare-fun var6432941 () (_ BitVec 64))
(declare-fun temp934_35 () (_ BitVec 64))
(declare-fun var7218247 () (_ BitVec 64))
(declare-fun var8461836 () (_ BitVec 64))
(declare-fun temp934_37 () (_ BitVec 64))
(declare-fun temp934_36 () (_ BitVec 64))
(declare-fun var8524787 () (_ BitVec 64))
(declare-fun var8524788 () (_ BitVec 64))
(declare-fun temp934_38 () (_ BitVec 64))
(declare-fun temp934_39 () (_ BitVec 64))
(declare-fun var8594453 () (_ BitVec 64))
(declare-fun var8660000 () (_ BitVec 64))
(declare-fun var8461854 () (_ BitVec 64))
(declare-fun temp934_40 () (_ BitVec 64))
(declare-fun var77094 () (_ BitVec 64))
(declare-fun temp934_41 () (_ BitVec 64))
(declare-fun var77135 () (_ BitVec 64))
(declare-fun var77169 () (_ BitVec 64))
(declare-fun var77223 () (_ BitVec 64))
(declare-fun temp934_42 () (_ BitVec 64))
(declare-fun var11608541 () (_ BitVec 64))
(declare-fun temp934_43 () (_ BitVec 64))
(declare-fun ARGNAME_i1_NAMEEND_NUMELEMENT () (_ BitVec 64))
(declare-fun var77268 () (_ BitVec 64))
(declare-fun temp934_44 () (_ BitVec 64))
(declare-fun temp934_45 () (_ BitVec 64))
(declare-fun ARGNAME_i2_NAMEEND_NUMELEMENT () (_ BitVec 64))
(declare-fun var77272 () (_ BitVec 64))
(declare-fun temp934_46 () (_ BitVec 64))
(declare-fun temp934_47 () (_ BitVec 64))
(declare-fun ARGNAME_i3_NAMEEND_NUMELEMENT () (_ BitVec 64))
(declare-fun var77276 () (_ BitVec 64))
(declare-fun temp934_48 () (_ BitVec 64))
(declare-fun temp934_50 () (_ BitVec 64))
(declare-fun temp934_49 () (_ BitVec 64))
(declare-fun temp934_51 () (_ BitVec 64))
(declare-fun var14885909 () (_ BitVec 64))
(declare-fun var14951456 () (_ BitVec 64))
(declare-fun var14753310 () (_ BitVec 64))
(declare-fun temp934_52 () (_ BitVec 64))
(declare-fun var15347757 () (_ BitVec 64))
(declare-fun temp934_53 () (_ BitVec 64))
(declare-fun var15413293 () (_ BitVec 64))
(declare-fun temp934_54 () (_ BitVec 64))
(declare-fun var15937581 () (_ BitVec 64))
(declare-fun temp934_56 () (_ BitVec 64))
(declare-fun temp934_55 () (_ BitVec 64))
(declare-fun temp934_57 () (_ BitVec 64))
(declare-fun var17049762 () (_ BitVec 64))
(declare-fun temp934_58 () (_ BitVec 64))
(declare-fun var17704007 () (_ BitVec 64))
(declare-fun temp934_60 () (_ BitVec 64))
(declare-fun temp934_59 () (_ BitVec 64))
(declare-fun temp934_61 () (_ BitVec 64))
(declare-fun var18686997 () (_ BitVec 64))
(declare-fun var18752544 () (_ BitVec 64))
(declare-fun temp934_62 () (_ BitVec 64))
(declare-fun var16258794 () (_ BitVec 64))
(declare-fun var16258764 () (_ BitVec 64))
(declare-fun var16258763 () (_ BitVec 64))
(declare-fun temp934_64 () (_ BitVec 64))
(declare-fun temp934_63 () (_ BitVec 64))
(declare-fun temp934_65 () (_ BitVec 64))
(declare-fun var16259272 () (_ BitVec 64))
(declare-fun temp934_66 () (_ BitVec 64))
(declare-fun var16259206 () (_ BitVec 64))
(declare-fun var16259205 () (_ BitVec 64))
(declare-fun var16259291 () (_ BitVec 64))
(declare-fun temp934_67 () (_ BitVec 64))
(declare-fun var16259285 () (_ BitVec 64))
(declare-fun var16259284 () (_ BitVec 64))
(declare-fun var16259320 () (_ BitVec 64))
(declare-fun temp934_68 () (_ BitVec 64))
(declare-fun var16259304 () (_ BitVec 64))
(declare-fun var16259303 () (_ BitVec 64))
(declare-fun temp934_70 () (_ BitVec 64))
(declare-fun temp934_69 () (_ BitVec 64))
(declare-fun temp934_72 () (_ BitVec 64))
(declare-fun temp934_71 () (_ BitVec 64))
(assert (= var76923 (bvadd ARGNAME_expand1_NAMEEND_LEN ARGNAME_i1_NAMEEND_DIM)))
(assert (= var76924
   (ite (bvsle var76923 ARGNAME_unroll_dim_NAMEEND)
        #x0000000000000001
        #x0000000000000000)))
(assert (= var76925 var76924))
(assert (= temp934_1 #x000000000000003f))
(assert (= var76926 (bvlshr ARGNAME_unroll_dim_NAMEEND temp934_1)))
(assert (= var76927 (bvor var76926 var76925)))
(assert (= temp934_2 #x0000000000000000))
(assert (= var76928 (ite (= var76927 temp934_2) #x0000000000000001 #x0000000000000000)))
(assert (= temp934_3 #x0000000000000001))
(assert (= var76928 temp934_3))
(assert (= var269666 var76923))
(assert (= temp934_4 #x0000000000000040))
(assert (= var269695
   (ite (bvsgt var269666 temp934_4) #x0000000000000001 #x0000000000000000)))
(assert (= temp934_5 #x0000000000000000))
(assert (= var269695 temp934_5))
(assert (= temp934_7 #x0000000000000000))
(assert (= temp934_6 temp934_7))
(assert (= temp934_9 #x0000000000000000))
(assert (= temp934_8 temp934_9))
(assert (= temp934_10 #x0000000000000000))
(assert (= var862370 temp934_10))
(assert (= var927917 var862370))
(assert (= temp934_11 #x0000000000000001))
(assert (= var1713223 temp934_11))
(assert (= var2104674 var76923))
(assert (= temp934_12 #x0000000000000040))
(assert (= var2104703
   (ite (bvsgt var2104674 temp934_12) #x0000000000000001 #x0000000000000000)))
(assert (= temp934_13 #x0000000000000000))
(assert (= var2104703 temp934_13))
(assert (= temp934_15 #x0000000000000000))
(assert (= temp934_14 temp934_15))
(assert (= temp934_17 #x0000000000000000))
(assert (= temp934_16 temp934_17))
(assert (= temp934_18 #x0000000000000000))
(assert (= var2697378 temp934_18))
(assert (= var2762925 var2697378))
(assert (= temp934_19 #x0000000000000001))
(assert (= var3548231 temp934_19))
(assert (= var3939682 var76923))
(assert (= temp934_20 #x0000000000000040))
(assert (= var3939711
   (ite (bvsgt var3939682 temp934_20) #x0000000000000001 #x0000000000000000)))
(assert (= temp934_21 #x0000000000000000))
(assert (= var3939711 temp934_21))
(assert (= temp934_23 #x0000000000000000))
(assert (= temp934_22 temp934_23))
(assert (= temp934_25 #x0000000000000000))
(assert (= temp934_24 temp934_25))
(assert (= temp934_26 #x0000000000000000))
(assert (= var4532386 temp934_26))
(assert (= var4597933 var4532386))
(assert (= temp934_27 #x0000000000000001))
(assert (= var5383239 temp934_27))
(assert (= var5774690 var76923))
(assert (= temp934_28 #x0000000000000040))
(assert (= var5774719
   (ite (bvsgt var5774690 temp934_28) #x0000000000000001 #x0000000000000000)))
(assert (= temp934_29 #x0000000000000000))
(assert (= var5774719 temp934_29))
(assert (= temp934_31 #x0000000000000000))
(assert (= temp934_30 temp934_31))
(assert (= temp934_33 #x0000000000000000))
(assert (= temp934_32 temp934_33))
(assert (= temp934_34 #x0000000000000000))
(assert (= var6367394 temp934_34))
(assert (= var6432941 var6367394))
(assert (= temp934_35 #x0000000000000001))
(assert (= var7218247 temp934_35))
(assert (= var8461836 var76923))
(assert (= temp934_37 #x0000000000000000))
(assert (= temp934_36 temp934_37))
(assert (= var8524787 var8461836))
(assert (= var8524788
   (ite (bvslt temp934_36 var8524787) #x0000000000000001 #x0000000000000000)))
(assert (= temp934_38 (ite (= var8524788 #x0000000000000001) var8461836 temp934_36)))
(assert (= temp934_39 #x0000000000000000))
(assert (= var8594453 temp934_39))
(assert (= var8660000 var8594453))
(assert (= var8461854 var8660000))
(assert (= temp934_40 #xffffffffffffffff))
(assert (= var77094 temp934_40))
(assert (= temp934_41 #x0000000000000000))
(assert (= var77135 temp934_41))
(assert (= var77169 var77135))
(assert (= var77223 var77169))
(assert (= temp934_42 #x0000000000000001))
(assert (= var11608541 temp934_42))
(assert (= temp934_43 #x0000000000000000))
(assert (= var77268
   (ite (= ARGNAME_i1_NAMEEND_NUMELEMENT temp934_43)
        #x0000000000000001
        #x0000000000000000)))
(assert (= temp934_44 #x0000000000000000))
(assert (= var77268 temp934_44))
(assert (= temp934_45 #x0000000000000000))
(assert (= var77272
   (ite (= ARGNAME_i2_NAMEEND_NUMELEMENT temp934_45)
        #x0000000000000001
        #x0000000000000000)))
(assert (= temp934_46 #x0000000000000000))
(assert (= var77272 temp934_46))
(assert (= temp934_47 #x0000000000000000))
(assert (= var77276
   (ite (= ARGNAME_i3_NAMEEND_NUMELEMENT temp934_47)
        #x0000000000000001
        #x0000000000000000)))
(assert (= temp934_48 #x0000000000000000))
(assert (= var77276 temp934_48))
(assert (= temp934_50 #x0000000000000000))
(assert (= temp934_49 temp934_50))
(assert (= temp934_51 #x0000000000000000))
(assert (= var14885909 temp934_51))
(assert (= var14951456 var14885909))
(assert (= var14753310 var14951456))
(assert (= temp934_52 #x0000000000000001))
(assert (= var15347757 temp934_52))
(assert (= temp934_53 #x0000000000000001))
(assert (= var15413293 temp934_53))
(assert (= temp934_54 #x0000000000000001))
(assert (= var15937581 temp934_54))
(assert (= temp934_56 #x0000000000000000))
(assert (= temp934_55 temp934_56))
(assert (= temp934_57 #x0000000000000000))
(assert (= var17049762 temp934_57))
(assert (= temp934_58 #x0000000000000001))
(assert (= var17704007 temp934_58))
(assert (= temp934_60 #x0000000000000000))
(assert (= temp934_59 temp934_60))
(assert (= temp934_61 #x0000000000000000))
(assert (= var18686997 temp934_61))
(assert (= var18752544 var18686997))
(assert (= temp934_62 #x0000000000000001))
(assert (= var16258794 temp934_62))
(assert (= var16258764 var16258794))
(assert (= var16258763 var16258764))
(assert (= temp934_64 #xffffffffffffffff))
(assert (= temp934_63 temp934_64))
(assert (= temp934_65 #x0000000000000000))
(assert (= var16259272 temp934_65))
(assert (= temp934_66 #x0000000000000001))
(assert (= var16259206 (bvadd var16259272 temp934_66)))
(assert (= var16259205 var16259206))
(assert (= var16259291 var16259205))
(assert (= temp934_67 #x0000000000000001))
(assert (= var16259285 (bvadd var16259291 temp934_67)))
(assert (= var16259284 var16259285))
(assert (= var16259320 var16259284))
(assert (= temp934_68 #x0000000000000001))
(assert (= var16259304 (bvadd var16259320 temp934_68)))
(assert (= var16259303 var16259304))
(assert (= temp934_70 #x0000000000000003))
(assert (= temp934_69 temp934_70))
(assert (= temp934_72 #x0000000000000003))
(assert (= temp934_71 temp934_72))
(model-add var76923
           ()
           (_ BitVec 64)
           (bvadd ARGNAME_expand1_NAMEEND_LEN ARGNAME_i1_NAMEEND_DIM))
(model-add var76924
           ()
           (_ BitVec 64)
           (ite (bvsle (bvadd ARGNAME_expand1_NAMEEND_LEN
                              ARGNAME_i1_NAMEEND_DIM)
                       ARGNAME_unroll_dim_NAMEEND)
                #x0000000000000001
                #x0000000000000000))
(model-add var76925
           ()
           (_ BitVec 64)
           (ite (bvsle (bvadd ARGNAME_expand1_NAMEEND_LEN
                              ARGNAME_i1_NAMEEND_DIM)
                       ARGNAME_unroll_dim_NAMEEND)
                #x0000000000000001
                #x0000000000000000))
(model-add temp934_1 () (_ BitVec 64) #x000000000000003f)
(model-add var76926
           ()
           (_ BitVec 64)
           (concat #b000000000000000000000000000000000000000000000000000000000000000
                   ((_ extract 63 63) ARGNAME_unroll_dim_NAMEEND)))
(model-add var76927
           ()
           (_ BitVec 64)
           (bvor (concat #b000000000000000000000000000000000000000000000000000000000000000
                         ((_ extract 63 63) ARGNAME_unroll_dim_NAMEEND))
                 (ite (bvsle (bvadd ARGNAME_expand1_NAMEEND_LEN
                                    ARGNAME_i1_NAMEEND_DIM)
                             ARGNAME_unroll_dim_NAMEEND)
                      #x0000000000000001
                      #x0000000000000000)))
(model-add temp934_2 () (_ BitVec 64) #x0000000000000000)
(model-add temp934_3 () (_ BitVec 64) #x0000000000000001)
(model-add var76928 () (_ BitVec 64) #x0000000000000001)
(model-del k!0)
(model-add ARGNAME_expand1_NAMEEND_LEN
           ()
           (_ BitVec 64)
           (bvsub k!0 ARGNAME_i1_NAMEEND_DIM))
(model-del k!1)
(model-add k!0
           ()
           (_ BitVec 64)
           (ite (or k!1 (= ARGNAME_unroll_dim_NAMEEND #x7fffffffffffffff))
                ARGNAME_unroll_dim_NAMEEND
                (bvadd ARGNAME_unroll_dim_NAMEEND #x0000000000000001)))





